units metal
box tilt large
atom_style atomic

boundary p p p
read_data /home/iwamura/struct-searcher/tests/data/structures/initial_structure

pair_style polymlp
pair_coeff * * /home/iwamura/struct-searcher/tests/data/potentials/Ti-Al/gtinv-411/mlp.lammps Ti Al

# What to monitor during minimization
thermo 1
thermo_style custom step temp pe etotal press fnorm
thermo_modify norm no

# Rebuild neighbor list at every timestep
neigh_modify delay 0 every 1 check yes one 100000 page 1000000

# Do relaxation with a bunch of degrees of freedom
fix ftri all box/relax tri 0.0
minimize 0.0 1e-8 5000 50000

# Output final structure
write_data /home/iwamura/struct-searcher/tests/data/structures/final_structure
